(declare-const X String)
; v\x2E\s+ocllceclbhs\x2fgth\w+http\x3A\x2F\x2Fwww\.searchinweb\.com\x2Fsearch\.php\?said=bar
(assert (not (str.in_re X (re.++ (str.to_re "v.") (re.+ (re.union (str.to_re " ") (str.to_re "\u{9}") (str.to_re "\u{a}") (str.to_re "\u{c}") (str.to_re "\u{d}"))) (str.to_re "ocllceclbhs/gth") (re.+ (re.union (re.range "0" "9") (re.range "A" "Z") (re.range "a" "z") (str.to_re "_"))) (str.to_re "http://www.searchinweb.com/search.php?said=bar\u{a}")))))
; tid\x3D\x7B\s+Basic.*\x2Ftoolbar\x2F
(assert (not (str.in_re X (re.++ (str.to_re "tid={") (re.+ (re.union (str.to_re " ") (str.to_re "\u{9}") (str.to_re "\u{a}") (str.to_re "\u{c}") (str.to_re "\u{d}"))) (str.to_re "Basic") (re.* re.allchar) (str.to_re "/toolbar/\u{a}")))))
; /filename=[^\n]*\x2eani/i
(assert (not (str.in_re X (re.++ (str.to_re "/filename=") (re.* (re.comp (str.to_re "\u{a}"))) (str.to_re ".ani/i\u{a}")))))
; /filename=[^\n]*\x2emim/i
(assert (not (str.in_re X (re.++ (str.to_re "/filename=") (re.* (re.comp (str.to_re "\u{a}"))) (str.to_re ".mim/i\u{a}")))))
(check-sat)
